38 32
1 661
5 480
12 961
29 210
26 554
21 787
16 699
22 508
3 592
10 23
31 756
31 467
7 584
24 779
13 128
9 625
12 813
19 418
16 899
26 434
1 730
7 620
4 95
18 176
17 937
12 782
4 113
21 836
24 393
10 427
29 528
12 965
3 639
4 91
25 5
12 531
29 394
3 569
